4 
5  30 47 
6  02 17 32 47 
7  02 14 29 44 59 
8  14 29 44 59 
9  14 29 44 59 
10  14 29 44 59 
11  14 29 44 59 
12  14 29 44 59 
13  15 32 47 
14  02 17 32 47 
15  02 16 31 46 
16  01 16 31 46 
17  01 16 31 46 
18  01 16 31 46 
19  01 15 29 44 59 
20  16 31 46 
21  01 16 31 46 
22  01 16 31 46 
23  01 16 35 52 
0 
